Minimize
  3 x_acai_berry_smoothie + 4 x_banana_chocolate_smoothie
Subject To
  c1: x_banana_chocolate_smoothie - x_acai_berry_smoothie <= 0
  c2: 0.65 x_acai_berry_smoothie - 0.35 x_banana_chocolate_smoothie >= 0
  c3: 7 x_acai_berry_smoothie <= 3500
  c4: 6 x_banana_chocolate_smoothie <= 3200
End